problems/csplib-prob030/BalancedAcademicCurriculumProblem-models/noch/O0/minion/model-bacp-19-solution000001.solution
language Essence 1.3

letting curr be
        function(1 --> 10, 2 --> 2, 3 --> 10, 4 --> 10, 5 --> 1, 6 --> 9, 7 --> 1, 8 --> 9, 9 --> 9, 10 --> 8, 11 --> 8,
                 12 --> 8, 13 --> 1, 14 --> 7, 15 --> 7, 16 --> 7, 17 --> 3, 18 --> 6, 19 --> 6, 20 --> 1, 21 --> 6,
                 22 --> 6, 23 --> 2, 24 --> 2, 25 --> 4, 26 --> 3, 27 --> 5, 28 --> 2, 29 --> 2, 30 --> 2, 31 --> 4,
                 32 --> 4, 33 --> 4, 34 --> 4, 35 --> 3, 36 --> 3, 37 --> 3, 38 --> 3, 39 --> 3, 40 --> 2, 41 --> 2,
                 42 --> 2, 43 --> 2, 44 --> 5, 45 --> 1, 46 --> 1, 47 --> 1, 48 --> 1, 49 --> 1, 50 --> 1)
