problems/csplib-prob030/BalancedAcademicCurriculumProblem-models/noch/O2/minion/model-bacp-19-solution000001.eprime-solution
language ESSENCE' 1.0

letting curr_Function1D be
        [10, 2, 10, 10, 1, 9, 1, 9, 9, 8, 8, 8, 1, 7, 7, 7, 3, 6, 6, 1, 6, 6, 2, 2, 4, 3, 5, 2, 2, 2, 4, 4, 4, 4, 3, 3,
         3, 3, 3, 2, 2, 2, 2, 5, 1, 1, 1, 1, 1, 1;
             int(1..50)]
